! non scf calculation of Oxygen vacancy with +2 charge defect useful for DOS calculation
&CONTROL
  calculation     =  'nscf',  ! non scf calculation 
  outdir          =  '/scratch1/christian.llemit/tmp/ZnO/O_vac-p2/dos',
  prefix          =  'O_vac-p2',
  pseudo_dir      =  '/home/christian.llemit/PP/GBRV',
  tprnfor         =  .true.,
  tstress         =  .true.,
  verbosity       =  'high',
/

&SYSTEM
  Hubbard_U(1)    =  7,
  Hubbard_U(2)    =  15,
  celldm(1)       =  18.61865901,
  ecutrho         =  720.0,
  ecutwfc         =  90,
  ibrav           =  0,
  lda_plus_U      =  .true.,
  lda_plus_u_kind =  0,
  nat             =  71,
  nbnd            =  928,
  ntyp            =  2,
  occupations     =  'tetrahedra',  ! useful for dos calculation
  tot_charge      =  +2,
/

&ELECTRONS
  conv_thr        =  1d-06,
  mixing_beta     =  0.4d0,
/

ATOMIC_SPECIES 
O    15.9994   o_pbe_v1.2.uspp.F.UPF 
Zn    65.39   zn_pbe_v1.uspp.F.UPF 

CELL_PARAMETERS alat
   0.9901556150000000   0.0000000000000000  -0.0000000000000000
  -0.4950778070000000   0.8574999150000000  -0.0000000000000000
  -0.0000000000000000   0.0000000000000000   1.0637299490000001

ATOMIC_POSITIONS crystal
Zn       0.219899669800   0.110407824500   0.488345838800
Zn       0.109529048000   0.221431024500   0.241614129600
O        0.221000214200   0.110303605200   0.182174721200
.              .                 .                .
.              .                 .                .
.              .                 .                .  
Zn       0.779171363300   0.891675724700   0.743324274600
O        0.886318013300   0.777576360700   0.679189539600
O        0.777599684600   0.888532368100   0.931205239200

K_POINTS automatic
! denser grid needed for dos calculations
12   12   12   0   0   0  



