! bands calculation of Oxygen antisite
&CONTROL
calculation     =  'bands',  ! bands calculation at fixed potential
outdir          =  '/scratch1/christian.llemit/tmp/ZnO/O_anti/bands',
prefix          =  'O_anti',
pseudo_dir      =  "/home/christian.llemit/PP/GBRV",
tprnfor         =  .true.,
tstress         =  .true.,
verbosity       =  'high',
/

&SYSTEM
Hubbard_U(1)    =  7,
Hubbard_U(2)    =  15,
ecutrho         =  720.0,
ecutwfc         =  90,
ibrav           =  0,
lda_plus_U      =  .true.,
lda_plus_u_kind =  0,
nat             =  72,
nbnd            =  922,
ntyp            =  2,
occupations     =  'fixed', ! useful for semiconductors with a gap
/

&ELECTRONS
conv_thr        =  1d-06,
mixing_beta     =  0.4d0,
/

ATOMIC_SPECIES 
O    15.9994   o_pbe_v1.2.uspp.F.UPF 
Zn    65.39   zn_pbe_v1.uspp.F.UPF 


CELL_PARAMETERS angstrom
   9.8265383879999995  -0.0000000000000000  -0.0000000000000000
  -4.9132691939999997   8.5100319629999994   0.0000000000000000
   0.0000000000000000   0.0000000000000000  10.6554541759999992

ATOMIC_POSITIONS crystal
! Zn atom is replaced by O atom
Zn       0.223288807900   0.114260900700   0.493587626200
Zn       0.110443668700   0.221888334300   0.242428282600
O        0.221288037000   0.110609154000   0.183134477000
.              .                 .                .
.              .                 .                .
.              .                 .                .  
Zn       0.777268067300   0.887869134600   0.743200560100
O        0.889592969900   0.778170061800   0.679957006200
O        0.777893715900   0.889120431900   0.931485268000

K_POINTS crystal_b  ! in terms of the high symmetry (HS)points
8                                         ! # HS points 
!   k_x              k_y        k_z   wk -> weights
0               0               0     16  ! Gamma 
0               0               0.5   16  ! A
0.3333333333    0.3333333333    0.5   16  ! H
0.3333333333    0.3333333333    0     16  ! K
0               0               0     16  ! Gamma
0.5             0               0     16  ! M
0.5             0               0.5   16  ! L
0.3333333333    0.3333333333    0.5   1   ! H



