 &CONTROL
   calculation     =  'scf',
   outdir          =  '/home/christian.llemit/scratch2/ZnO/converged-relaxed/U1.5-7.0',
   prefix          =  'ZnO',
   pseudo_dir      =  "/home/christian.llemit/pseudopotentials/GBRV",
   tprnfor         =  .true.,
   tstress         =  .true.,
   verbosity       =  'high',
 /

 &SYSTEM
   Hubbard_U(1)    =  7.0,
   Hubbard_U(2)    =  1.5,
   celldm(1)       =  6.13972021,
   ecutrho         =  720.0,
   ecutwfc         =  90,
   ibrav           =  0,
   lda_plus_U      =  .true.,
   lda_plus_u_kind =  0,
   nat             =  4,
   nbnd            =  52,
   ntyp            =  2,
 /

 &ELECTRONS
   conv_thr        =  1d-08,
   mixing_beta     =  0.7d0,
 /

ATOMIC_SPECIES 
  O    15.9994   o_pbe_v1.2.uspp.F.UPF 
  Zn    65.39   zn_pbe_v1.uspp.F.UPF 

CELL_PARAMETERS alat
    1.0108310250000001   0.0000000000000000   0.0000000000000000
   -0.5054155130000000   0.8754053469999999   0.0000000000000000
    0.0000000000000000   0.0000000000000000   1.6307933750000001

ATOMIC_POSITIONS crystal
  Zn       0.666666667000   0.333333333000  -0.017151223000
  Zn       0.333333333000   0.666666667000   0.482848777000
  O        0.666666667000   0.333333333000   0.362151223000
  O        0.333333333000   0.666666667000   0.862151223000

K_POINTS automatic
  11   11   6   0   0   0 



