&CONTROL
calculation     =  'vc-relax',
etot_conv_thr   =  1.d-5,
forc_conv_thr   =  1.d-4,
outdir          =  '/scratch1/christian.llemit/tmp/ZnO/relax/Zn_vac-n2',
prefix          =  'Zn_vac-n2',
pseudo_dir      =  '/home/christian.llemit/pseudopotentials/GBRV',
tprnfor         =  .true.,
tstress         =  .true.,
verbosity       =  'high',
/

&SYSTEM
celldm(1)       =  18.61865901,
degauss         =  0.01,
ecutrho         =  720.0,
ecutwfc         =  90,
ibrav           =  0,
nat             =  71,
ntyp            =  2,
occupations     =  'smearing',
smearing        =  'gauss',
tot_charge      =  -2,
/

&ELECTRONS
conv_thr        =  1.00000e-06,
mixing_beta     =  7.00000e-01,
/

&IONS
/

&CELL
/

ATOMIC_SPECIES 
Zn    65.39   zn_pbe_v1.uspp.F.UPF 
O    15.9994   o_pbe_v1.2.uspp.F.UPF 


CELL_PARAMETERS alat
 0.9992341179999999   0.0000032780000000  -0.0000021060000000
-0.4996142200000000   0.8653637700000000   0.0000021060000000
-0.0000022630000000   0.0000013060000000   1.0762002420000001

ATOMIC_POSITIONS crystal
Zn       0.225724334000   0.114469544000   0.491450723000
Zn       0.111704132000   0.222521937000   0.241987109000
O        0.221485939000   0.110948003000   0.180189772000
O        0.110322337000   0.221831003000   0.431825913000
Zn       0.222194323000   0.110873993000   0.991530280000
Zn       0.111630968000   0.222483807000   0.741620488000
O        0.221473888000   0.110568370000   0.681197816000
O        0.110750331000   0.222042093000   0.930996932000
Zn       0.225735420000   0.444605150000   0.491445304000
Zn       0.110604765000   0.554533468000   0.243231178000
O        0.221485737000   0.443871409000   0.180188013000
O        0.110456814000   0.554251379000   0.432423130000
Zn       0.222195830000   0.444655023000   0.991530030000
Zn       0.111325965000   0.555980387000   0.741094871000
O        0.221473355000   0.444238883000   0.681196210000
O        0.111388717000   0.556109046000   0.930719707000
Zn       0.222226193000   0.777773807000   0.489436477000
Zn       0.110602814000   0.889397186000   0.243228014000
O        0.222224168000   0.777775832000   0.182605934000
O        0.110458475000   0.889541525000   0.432424563000
Zn       0.222225582000   0.777774418000   0.992901807000
Zn       0.111325600000   0.888674400000   0.741096833000
O        0.222223945000   0.777776055000   0.679955230000
O        0.111389522000   0.888610478000   0.930721053000
Zn       0.555406396000   0.114461929000   0.491451180000
Zn       0.446011020000   0.225358036000   0.243518273000
O        0.556128831000   0.110947502000   0.180190445000
O        0.433589789000   0.200513843000   0.424119728000
Zn       0.555347233000   0.110870398000   0.991531865000
Zn       0.445373083000   0.224080234000   0.738636233000
O        0.555762155000   0.110568197000   0.681198094000
O        0.443016927000   0.219364979000   0.931407379000
Zn       0.446006031000   0.553993969000   0.243530794000
O        0.555552891000   0.444447109000   0.176450783000
O        0.433585923000   0.566414077000   0.424117600000
Zn       0.555553130000   0.444446870000   0.985217120000
Zn       0.445371021000   0.554628979000   0.738630029000
O        0.555553941000   0.444446059000   0.702884490000
O        0.443014501000   0.556985499000   0.931403488000
Zn       0.555394850000   0.774264580000   0.491445304000
Zn       0.445466532000   0.889395235000   0.243231178000
O        0.556128591000   0.778514263000   0.180188013000
O        0.445748621000   0.889543186000   0.432423130000
Zn       0.555344977000   0.777804170000   0.991530030000
Zn       0.444019613000   0.888674035000   0.741094871000
O        0.555761117000   0.778526645000   0.681196210000
O        0.443890954000   0.888611283000   0.930719707000
Zn       0.888887602000   0.111112398000   0.492361738000
Zn       0.777484497000   0.222515503000   0.241984281000
O        0.888889591000   0.111110409000   0.181750148000
O        0.778171989000   0.221828011000   0.431825379000
Zn       0.888889985000   0.111110015000   0.992266090000
Zn       0.777520237000   0.222479763000   0.741623020000
O        0.888889311000   0.111110689000   0.681763702000
O        0.777959329000   0.222040671000   0.930997750000
Zn       0.885538071000   0.444593604000   0.491451180000
Zn       0.774641964000   0.553988980000   0.243518273000
O        0.889052498000   0.443871169000   0.180190445000
O        0.799486157000   0.566410211000   0.424119728000
Zn       0.889129602000   0.444652767000   0.991531865000
Zn       0.775919766000   0.554626917000   0.738636233000
O        0.889431803000   0.444237845000   0.681198094000
O        0.780635021000   0.556983073000   0.931407379000
Zn       0.885530456000   0.774275666000   0.491450723000
Zn       0.777478063000   0.888295868000   0.241987109000
O        0.889051997000   0.778514061000   0.180189772000
O        0.778168997000   0.889677663000   0.431825913000
Zn       0.889126007000   0.777805677000   0.991530280000
Zn       0.777516193000   0.888369032000   0.741620488000
O        0.889431630000   0.778526112000   0.681197816000
O        0.777957907000   0.889249669000   0.930996932000

K_POINTS automatic
2   2   2   0   0   0 



