! calculation for Zinc interstitial with plus one charge defect
&CONTROL
calculation     =  'scf',
outdir          =  '/scratch1/christian.llemit/tmp/ZnO/Zn_i-p1/bands',
prefix          =  'Zn_i-p1',
pseudo_dir      =  '/home/christian.llemit/PP/GBRV',
tprnfor         =  .true.,
tstress         =  .true.,
verbosity       =  'high',
 /

&SYSTEM
Hubbard_U(1)    =  7,    ! Hubbard U parameter for atom species i
Hubbard_U(2)    =  15,   ! order is important as given in ATOMIC_SPECIES 
degauss         =  0.001,
ecutrho         =  720.0,
ecutwfc         =  90,
ibrav           =  0,
lda_plus_U      =  .true.,  ! enable DFT+U calculations
lda_plus_u_kind =  0,  ! using Cococcioni and de Gironcoli method
nat         =  73,     !  + 1 Zn interstitial
nbnd        =  955,    ! # electronic states/bands to be calculated
ntyp        =  2,
occupations     =  'smearing',
smearing        =  'gauss',
tot_charge      =  +1,      ! one electron removed 
 /

&ELECTRONS
conv_thr        =  1d-06,
mixing_beta     =  0.4d0,
 /

ATOMIC_SPECIES 
O    15.9994   o_pbe_v1.2.uspp.F.UPF  ! Hubbard_U(1) on O atom
Zn    65.39   zn_pbe_v1.uspp.F.UPF    ! Hubbard_U(2) on Zn atom

CELL_PARAMETERS angstrom
  9.8400836900   0.0001330800   0.00012622900
  -4.9199289190   8.5219279720  -0.00020238800
  0.0000715790  -0.0000367300  10.58872744600

ATOMIC_POSITIONS crystal
  Zn       0.221911745800   0.111229691400  -0.012667771600
  Zn       0.221022617000   0.112120860600   0.492073082100
  Zn       0.218275460100   0.442221973100  -0.003589824100
  .              .                 .                .
  .              .                 .                .
  .              .                 .                .                                                  
  O        0.778379048600   0.554766464900   0.939067243100
  O        0.775818344100   0.884668218600   0.434512210900
  O        0.778399548700   0.889799320600   0.939030963300

K_POINTS automatic
  2   2   2   0   0   0 



